70
1 0 6
2 0 2
2 1 10
3 0 4
3 1 6
3 2 7
4 0 10
4 1 9
4 3 7
5 0 2
5 1 7
5 2 10
5 3 1
5 4 1
6 0 9
6 1 2
6 3 5
6 4 6
6 5 2
7 0 3
7 1 7
7 2 4
7 3 8
7 4 1
7 5 6
7 6 1
8 0 10
8 2 4
8 3 4
8 4 4
8 5 6
8 6 10
8 7 8
9 0 6
9 1 8
9 3 7
9 4 1
9 5 2
9 6 1
9 8 10
10 0 1
10 1 9
10 2 7
10 3 5
10 4 10
10 5 10
10 6 9
10 8 5
10 9 10
11 0 4
11 1 5
11 2 4
11 3 7
11 4 6
11 5 4
11 8 2
11 9 7
11 10 5
12 0 1
12 1 7
12 2 1
12 3 4
12 5 2
12 6 3
12 7 3
12 8 6
12 9 9
12 10 5
13 0 8
13 1 6
13 3 9
13 4 2
13 5 8
13 9 3
13 10 3
13 11 8
13 12 5
14 0 8
14 1 8
14 2 1
14 3 4
14 5 5
14 6 6
14 7 6
14 8 9
14 9 5
14 10 3
14 11 6
14 12 10
14 13 8
15 0 9
15 3 1
15 4 5
15 6 8
15 7 1
15 8 10
15 10 6
15 11 7
15 12 5
15 13 4
15 14 8
16 0 4
16 1 2
16 2 7
16 3 9
16 4 3
16 5 4
16 6 10
16 7 7
16 8 8
16 10 2
16 11 1
16 12 9
16 14 1
16 15 10
17 0 8
17 1 2
17 2 9
17 3 10
17 4 8
17 5 6
17 6 2
17 7 4
17 9 2
17 10 1
17 11 8
17 12 3
17 13 6
17 14 4
17 15 4
17 16 7
18 0 5
18 1 5
18 4 2
18 5 10
18 6 9
18 7 2
18 8 3
18 9 10
18 10 4
18 11 6
18 12 5
18 13 7
18 14 3
18 16 1
18 17 6
19 0 2
19 1 9
19 2 9
19 3 7
19 4 8
19 5 10
19 6 2
19 7 10
19 8 7
19 10 8
19 11 10
19 12 10
19 13 4
19 14 7
19 15 3
19 16 4
19 17 6
19 18 1
20 0 4
20 1 8
20 2 3
20 3 4
20 4 4
20 5 2
20 6 7
20 7 8
20 8 4
20 9 8
20 11 2
20 12 1
20 13 2
20 14 3
20 15 2
20 16 9
20 17 1
20 18 4
20 19 4
21 1 2
21 2 5
21 3 7
21 4 5
21 5 10
21 7 4
21 8 9
21 10 4
21 11 6
21 12 3
21 13 3
21 14 4
21 15 3
21 17 1
21 18 4
21 19 4
21 20 2
22 0 5
22 1 1
22 2 2
22 3 3
22 4 3
22 5 10
22 8 10
22 9 1
22 10 10
22 11 4
22 12 8
22 13 9
22 15 6
22 16 4
22 17 9
22 18 6
22 19 8
22 20 2
22 21 7
23 0 5
23 1 6
23 2 1
23 3 5
23 4 4
23 5 4
23 6 1
23 7 5
23 9 5
23 10 10
23 11 7
23 13 5
23 14 1
23 15 4
23 16 8
23 17 8
23 18 3
23 19 2
23 20 7
23 21 4
23 22 7
24 0 8
24 1 3
24 2 2
24 3 6
24 4 4
24 5 5
24 6 2
24 7 6
24 8 5
24 9 10
24 10 10
24 12 6
24 13 3
24 16 3
24 17 9
24 19 2
24 20 6
24 21 2
24 23 10
25 0 10
25 1 3
25 2 3
25 3 1
25 4 8
25 5 1
25 7 2
25 8 8
25 9 5
25 10 5
25 11 8
25 12 8
25 13 4
25 15 5
25 17 10
25 18 1
25 20 3
25 21 7
25 22 4
25 23 1
25 24 7
26 0 7
26 1 9
26 3 5
26 4 4
26 5 1
26 6 10
26 7 3
26 8 4
26 9 3
26 10 6
26 11 4
26 12 9
26 13 6
26 14 2
26 15 10
26 16 3
26 17 3
26 18 8
26 19 10
26 20 10
26 21 5
26 22 5
26 23 3
26 24 10
26 25 9
27 0 4
27 1 10
27 2 7
27 3 9
27 4 6
27 5 7
27 6 7
27 7 5
27 8 8
27 10 5
27 11 7
27 12 4
27 13 2
27 14 2
27 15 6
27 16 2
27 17 2
27 18 1
27 19 6
27 20 7
27 21 3
27 22 5
27 23 8
27 24 9
27 25 4
27 26 3
28 0 4
28 1 6
28 2 2
28 3 8
28 4 7
28 5 5
28 6 4
28 7 10
28 8 8
28 9 4
28 10 2
28 11 3
28 13 7
28 14 10
28 15 10
28 16 9
28 17 8
28 18 10
28 19 3
28 20 1
28 21 10
28 22 3
28 23 6
28 24 4
28 25 7
28 26 1
28 27 1
29 0 4
29 1 4
29 2 7
29 3 10
29 4 4
29 6 5
29 7 7
29 8 4
29 9 10
29 10 4
29 12 4
29 13 5
29 14 5
29 15 1
29 16 3
29 17 8
29 18 6
29 19 6
29 20 7
29 21 7
29 22 9
29 23 10
29 24 2
29 25 7
29 26 2
29 27 10
29 28 3
30 0 9
30 1 8
30 2 1
30 3 1
30 4 9
30 5 3
30 6 6
30 7 6
30 8 3
30 9 4
30 10 9
30 11 5
30 12 10
30 13 6
30 14 2
30 15 2
30 16 10
30 17 5
30 18 7
30 19 4
30 20 2
30 22 1
30 23 10
30 24 8
30 26 7
30 27 10
30 28 2
30 29 6
31 0 2
31 1 1
31 2 1
31 3 9
31 4 4
31 5 3
31 6 6
31 7 7
31 8 1
31 9 5
31 10 5
31 11 4
31 12 2
31 13 10
31 14 7
31 15 9
31 16 6
31 17 3
31 18 8
31 19 2
31 21 2
31 22 10
31 23 6
31 24 8
31 25 1
31 26 2
31 27 1
31 28 4
31 29 8
31 30 9
32 0 2
32 1 6
32 2 10
32 3 5
32 4 4
32 5 9
32 6 6
32 7 2
32 8 1
32 9 4
32 10 3
32 11 7
32 12 1
32 13 2
32 14 2
32 15 7
32 16 10
32 17 4
32 18 4
32 19 2
32 20 10
32 21 5
32 22 8
32 23 4
32 24 9
32 25 2
32 26 2
32 27 8
32 28 7
32 29 5
32 30 6
32 31 8
33 0 5
33 1 5
33 2 6
33 3 3
33 4 9
33 5 4
33 6 2
33 7 1
33 8 7
33 9 6
33 10 10
33 11 3
33 12 9
33 13 7
33 14 6
33 15 8
33 16 10
33 17 10
33 18 1
33 19 1
33 20 4
33 21 6
33 22 9
33 23 4
33 24 10
33 26 3
33 27 7
33 28 1
33 29 5
33 30 6
33 31 2
34 0 5
34 1 10
34 2 5
34 3 6
34 4 8
34 5 9
34 6 4
34 7 9
34 8 4
34 9 4
34 10 5
34 11 6
34 12 2
34 13 8
34 14 10
34 15 10
34 16 2
34 17 3
34 18 10
34 19 7
34 20 5
34 21 2
34 22 4
34 23 8
34 24 5
34 25 1
34 26 9
34 28 5
34 29 3
34 30 7
34 31 1
34 32 1
34 33 4
35 0 4
35 2 5
35 3 10
35 4 6
35 5 10
35 6 7
35 7 3
35 8 8
35 9 10
35 10 8
35 11 2
35 12 4
35 13 3
35 14 6
35 15 8
35 16 7
35 17 7
35 19 3
35 22 4
35 23 10
35 24 10
35 25 4
35 26 3
35 27 4
35 29 4
35 30 5
35 31 6
35 32 10
35 33 10
35 34 1
36 0 8
36 1 10
36 2 2
36 3 7
36 4 9
36 5 3
36 6 4
36 7 10
36 8 4
36 9 8
36 10 10
36 12 8
36 13 5
36 14 6
36 15 4
36 16 3
36 17 8
36 18 8
36 19 4
36 20 2
36 21 7
36 22 5
36 23 10
36 24 5
36 25 2
36 26 1
36 27 1
36 28 3
36 29 7
36 30 2
36 31 8
36 32 4
36 33 1
36 34 4
36 35 2
37 0 6
37 1 4
37 2 2
37 3 5
37 4 4
37 5 8
37 6 2
37 7 3
37 8 1
37 9 4
37 10 5
37 11 9
37 12 1
37 13 6
37 15 9
37 16 10
37 17 8
37 18 5
37 19 4
37 20 8
37 21 7
37 22 10
37 23 10
37 24 9
37 25 5
37 26 4
37 27 9
37 28 10
37 29 3
37 30 9
37 31 4
37 32 10
37 33 7
37 34 5
37 35 7
37 36 6
38 0 6
38 2 6
38 3 4
38 4 7
38 5 3
38 6 9
38 8 6
38 9 4
38 10 2
38 11 10
38 12 8
38 13 3
38 14 4
38 15 9
38 17 1
38 18 9
38 19 5
38 20 6
38 21 5
38 22 8
38 23 3
38 24 10
38 25 8
38 26 7
38 27 7
38 28 8
38 29 9
38 30 2
38 31 2
38 32 8
38 33 6
38 34 2
38 36 6
38 37 10
39 0 7
39 1 8
39 2 3
39 3 6
39 4 10
39 5 6
39 6 4
39 7 2
39 8 10
39 9 1
39 10 6
39 11 3
39 12 10
39 13 5
39 14 5
39 15 4
39 16 7
39 17 10
39 18 3
39 19 9
39 20 1
39 21 1
39 22 10
39 24 2
39 25 8
39 26 10
39 27 4
39 28 9
39 29 7
39 30 10
39 31 8
39 32 2
39 33 7
39 34 3
39 36 6
39 37 10
39 38 9
40 3 7
40 4 2
40 5 4
40 6 9
40 7 10
40 8 10
40 10 5
40 11 4
40 12 8
40 13 5
40 14 2
40 15 7
40 16 10
40 17 7
40 19 3
40 20 10
40 21 1
40 22 5
40 23 9
40 24 9
40 25 1
40 26 5
40 27 3
40 28 3
40 29 8
40 30 6
40 31 10
40 33 8
40 34 6
40 35 5
40 36 4
40 37 4
40 38 6
40 39 6
41 0 3
41 1 8
41 2 2
41 3 8
41 4 7
41 5 3
41 6 10
41 7 6
41 8 1
41 9 2
41 10 4
41 11 5
41 12 5
41 14 1
41 15 5
41 16 8
41 17 4
41 18 5
41 19 2
41 20 7
41 21 4
41 22 4
41 23 3
41 24 5
41 25 6
41 27 7
41 28 6
41 29 4
41 30 10
41 31 10
41 32 8
41 33 2
41 34 3
41 35 8
41 36 5
41 37 10
41 38 8
41 39 7
41 40 4
42 0 3
42 1 6
42 2 6
42 3 3
42 4 3
42 5 2
42 7 9
42 8 9
42 9 5
42 10 2
42 11 5
42 12 3
42 13 9
42 14 4
42 15 5
42 16 7
42 17 4
42 18 4
42 19 8
42 20 5
42 22 4
42 23 8
42 24 6
42 25 10
42 26 10
42 27 2
42 29 7
42 30 4
42 31 2
42 32 7
42 33 8
42 34 7
42 35 9
42 36 2
42 37 1
42 38 10
42 39 7
42 41 6
43 0 8
43 1 1
43 2 3
43 4 1
43 5 10
43 6 10
43 7 5
43 8 5
43 9 4
43 10 1
43 11 4
43 12 5
43 13 5
43 14 2
43 15 2
43 16 9
43 17 10
43 18 5
43 19 10
43 20 9
43 21 3
43 22 4
43 23 7
43 24 4
43 25 9
43 26 1
43 27 2
43 29 7
43 30 10
43 32 9
43 35 8
43 36 10
43 37 3
43 38 7
43 39 7
43 40 1
43 41 4
43 42 6
44 0 2
44 1 3
44 2 1
44 3 5
44 4 8
44 5 4
44 6 3
44 7 10
44 8 9
44 9 10
44 10 7
44 11 10
44 12 3
44 13 1
44 14 8
44 15 6
44 16 9
44 17 10
44 18 1
44 19 7
44 20 6
44 21 3
44 22 4
44 23 3
44 24 10
44 25 10
44 26 4
44 27 5
44 28 6
44 29 10
44 30 5
44 31 1
44 32 2
44 33 3
44 34 6
44 35 7
44 36 1
44 37 4
44 38 2
44 39 7
44 40 2
44 41 1
44 43 3
45 0 3
45 1 2
45 3 6
45 4 1
45 5 7
45 6 6
45 7 3
45 8 7
45 9 9
45 10 9
45 11 4
45 12 9
45 13 8
45 15 5
45 16 1
45 17 10
45 18 6
45 19 9
45 20 6
45 21 3
45 22 7
45 23 9
45 24 6
45 25 3
45 26 6
45 27 7
45 28 7
45 29 2
45 30 7
45 31 1
45 32 6
45 33 7
45 34 1
45 35 1
45 36 7
45 37 6
45 38 7
45 39 5
45 40 1
45 41 3
45 42 2
45 43 8
45 44 5
46 0 3
46 1 1
46 2 9
46 3 4
46 4 9
46 6 10
46 7 1
46 8 7
46 9 3
46 11 4
46 12 7
46 13 4
46 14 7
46 15 5
46 16 4
46 17 4
46 19 6
46 20 7
46 21 1
46 22 10
46 23 10
46 24 7
46 25 10
46 26 1
46 27 5
46 28 10
46 29 8
46 30 3
46 31 3
46 32 9
46 33 6
46 34 4
46 35 6
46 36 10
46 37 4
46 38 6
46 39 1
46 40 3
46 41 6
46 42 4
46 43 10
46 44 5
46 45 7
47 0 9
47 1 9
47 2 4
47 3 1
47 4 7
47 5 10
47 6 3
47 7 4
47 8 9
47 9 4
47 11 1
47 12 5
47 13 5
47 14 9
47 15 5
47 16 1
47 17 2
47 18 2
47 19 10
47 20 10
47 21 10
47 22 8
47 23 4
47 25 3
47 27 10
47 28 1
47 29 7
47 30 2
47 31 10
47 32 3
47 33 2
47 34 9
47 35 10
47 36 1
47 37 10
47 38 4
47 39 1
47 40 7
47 41 6
47 42 6
47 43 7
47 44 8
47 45 3
47 46 1
48 1 2
48 2 8
48 4 10
48 5 4
48 6 3
48 7 10
48 8 6
48 10 3
48 11 5
48 12 10
48 13 10
48 14 2
48 15 5
48 16 1
48 17 4
48 18 9
48 19 9
48 21 3
48 22 4
48 23 10
48 24 10
48 25 5
48 27 8
48 28 3
48 29 2
48 30 6
48 32 4
48 33 8
48 34 6
48 35 10
48 36 1
48 37 10
48 39 1
48 40 4
48 41 2
48 42 5
48 43 1
48 44 4
48 45 4
48 46 8
48 47 9
49 0 5
49 1 8
49 2 4
49 3 4
49 4 2
49 5 8
49 6 4
49 8 8
49 9 1
49 10 9
49 11 3
49 12 7
49 13 5
49 14 2
49 15 2
49 16 6
49 18 6
49 19 7
49 20 3
49 21 2
49 23 10
49 24 8
49 25 5
49 26 6
49 27 4
49 28 7
49 29 7
49 30 10
49 32 4
49 33 1
49 34 1
49 35 9
49 36 2
49 37 6
49 38 7
49 40 3
49 41 3
49 42 5
49 43 4
49 44 1
49 45 1
49 46 4
49 47 1
49 48 3
50 0 2
50 1 5
50 2 10
50 3 1
50 4 7
50 5 7
50 6 9
50 7 7
50 8 8
50 9 9
50 10 2
50 11 3
50 12 9
50 13 4
50 15 5
50 16 8
50 18 1
50 19 6
50 20 1
50 21 2
50 22 8
50 23 1
50 24 9
50 25 9
50 26 7
50 27 2
50 28 4
50 29 6
50 30 7
50 31 4
50 32 9
50 33 4
50 35 7
50 36 7
50 37 4
50 38 10
50 40 5
50 41 2
50 42 4
50 43 2
50 44 5
50 46 5
50 47 6
50 49 2
51 0 7
51 1 9
51 2 6
51 3 1
51 4 10
51 5 6
51 6 10
51 7 6
51 8 8
51 9 4
51 10 8
51 11 8
51 12 2
51 13 10
51 14 8
51 15 9
51 16 3
51 17 8
51 18 9
51 19 7
51 21 1
51 23 6
51 24 8
51 25 9
51 26 7
51 27 7
51 28 7
51 29 7
51 30 9
51 31 5
51 32 9
51 34 1
51 35 1
51 37 7
51 38 5
51 39 9
51 40 1
51 41 9
51 42 7
51 45 1
51 46 8
51 47 7
51 48 6
51 49 3
51 50 2
52 0 3
52 1 6
52 2 6
52 3 1
52 4 7
52 5 10
52 6 7
52 7 5
52 8 6
52 9 2
52 10 9
52 11 4
52 12 8
52 13 3
52 14 10
52 15 3
52 16 3
52 17 1
52 18 9
52 19 9
52 20 2
52 21 4
52 22 3
52 23 4
52 24 10
52 25 10
52 26 6
52 27 2
52 28 1
52 29 10
52 30 8
52 31 1
52 32 4
52 33 1
52 34 5
52 35 9
52 36 6
52 37 4
52 38 10
52 39 8
52 40 8
52 41 4
52 42 9
52 43 3
52 44 1
52 45 10
52 46 3
52 47 5
52 48 1
52 49 1
52 50 6
52 51 5
53 0 3
53 1 9
53 3 3
53 4 9
53 5 8
53 6 9
53 7 7
53 8 7
53 9 8
53 11 6
53 12 8
53 13 5
53 14 10
53 17 1
53 18 8
53 19 8
53 20 3
53 21 7
53 22 9
53 23 5
53 24 10
53 25 7
53 26 1
53 27 4
53 28 4
53 29 6
53 30 1
53 31 9
53 32 5
53 33 7
53 35 1
53 36 3
53 37 1
53 38 8
53 39 9
53 41 1
53 42 6
53 43 6
53 44 9
53 45 8
53 46 1
53 47 9
53 48 2
53 49 4
53 50 6
53 51 2
53 52 10
54 0 10
54 1 4
54 2 1
54 3 2
54 4 7
54 5 1
54 6 6
54 7 2
54 8 6
54 9 3
54 11 10
54 12 3
54 13 1
54 14 2
54 15 6
54 16 3
54 17 7
54 18 6
54 19 7
54 21 10
54 22 3
54 23 2
54 24 10
54 25 2
54 26 6
54 27 7
54 28 7
54 29 10
54 30 8
54 31 6
54 32 8
54 33 1
54 34 2
54 35 8
54 36 10
54 37 1
54 38 2
54 39 9
54 40 7
54 42 10
54 43 9
54 44 3
54 46 3
54 47 5
54 48 5
54 49 3
54 50 6
54 51 6
54 52 6
54 53 6
55 0 2
55 1 9
55 3 3
55 5 8
55 7 6
55 8 2
55 9 5
55 10 8
55 11 5
55 12 10
55 13 8
55 14 9
55 15 2
55 16 10
55 17 6
55 18 2
55 19 3
55 21 9
55 22 8
55 23 7
55 24 8
55 25 1
55 26 4
55 28 2
55 29 7
55 30 1
55 33 6
55 34 5
55 35 1
55 36 2
55 37 10
55 38 5
55 39 2
55 40 8
55 43 6
55 44 7
55 45 10
55 46 10
55 47 6
55 48 1
55 49 2
55 50 2
55 51 6
55 52 1
55 53 1
55 54 1
56 0 1
56 1 2
56 2 2
56 3 10
56 4 1
56 5 1
56 6 1
56 7 10
56 8 1
56 9 3
56 10 6
56 11 10
56 12 2
56 13 6
56 14 4
56 16 10
56 17 4
56 18 5
56 19 1
56 20 5
56 21 6
56 22 3
56 23 7
56 24 5
56 25 1
56 26 5
56 27 8
56 28 9
56 29 10
56 30 8
56 31 1
56 32 8
56 33 8
56 34 5
56 35 7
56 37 2
56 39 10
56 40 3
56 41 6
56 42 2
56 43 6
56 44 9
56 45 1
56 46 7
56 47 5
56 49 6
56 51 1
56 52 8
56 53 1
56 54 5
56 55 7
57 0 4
57 1 8
57 2 8
57 4 10
57 5 2
57 6 6
57 7 2
57 9 8
57 10 6
57 11 3
57 14 1
57 15 5
57 16 5
57 17 7
57 18 2
57 19 9
57 20 6
57 21 1
57 22 2
57 23 2
57 24 7
57 25 1
57 26 2
57 27 8
57 28 2
57 29 5
57 30 9
57 31 6
57 32 3
57 33 2
57 34 2
57 35 3
57 36 1
57 37 2
57 38 6
57 39 6
57 40 4
57 41 1
57 42 8
57 43 4
57 45 5
57 46 3
57 47 2
57 48 3
57 49 10
57 50 9
57 51 9
57 52 3
57 55 1
57 56 9
58 0 2
58 2 6
58 3 6
58 5 5
58 6 2
58 8 9
58 9 8
58 10 9
58 13 2
58 14 1
58 15 3
58 16 3
58 17 4
58 20 5
58 21 8
58 22 5
58 23 10
58 24 5
58 26 8
58 27 9
58 28 5
58 29 9
58 30 8
58 31 8
58 32 8
58 33 5
58 35 6
58 36 5
58 37 5
58 38 10
58 39 8
58 40 1
58 41 3
58 42 6
58 43 10
58 44 9
58 45 2
58 46 4
58 47 10
58 48 6
58 49 6
58 50 1
58 51 6
58 52 5
58 53 2
58 54 5
58 55 10
58 56 10
58 57 3
59 0 4
59 1 1
59 2 10
59 3 9
59 4 8
59 5 9
59 6 9
59 7 8
59 8 3
59 10 1
59 11 5
59 12 7
59 13 2
59 14 9
59 15 3
59 16 7
59 17 6
59 18 3
59 19 4
59 20 10
59 21 2
59 22 10
59 23 5
59 24 10
59 25 9
59 26 10
59 27 8
59 28 7
59 29 7
59 30 9
59 31 7
59 32 7
59 33 6
59 34 9
59 35 10
59 36 7
59 37 5
59 38 6
59 39 7
59 40 1
59 41 6
59 42 5
59 43 2
59 45 5
59 46 2
59 47 8
59 48 8
59 49 6
59 50 10
59 53 4
59 54 7
59 55 6
59 56 8
59 57 1
59 58 5
60 0 2
60 1 8
60 2 9
60 3 10
60 4 9
60 5 1
60 6 3
60 7 6
60 8 10
60 9 8
60 10 7
60 11 10
60 12 7
60 13 6
60 14 2
60 15 9
60 16 5
60 17 3
60 18 3
60 19 2
60 20 5
60 21 7
60 22 5
60 23 2
60 24 4
60 25 7
60 26 6
60 27 3
60 29 4
60 30 5
60 31 2
60 32 9
60 33 10
60 34 2
60 35 4
60 36 8
60 37 7
60 38 6
60 39 10
60 40 3
60 41 5
60 42 8
60 43 3
60 44 3
60 45 1
60 46 10
60 47 7
60 48 3
60 49 1
60 50 3
60 51 4
60 52 5
60 53 5
60 54 8
60 56 10
60 57 2
60 58 1
60 59 8
61 1 8
61 2 2
61 3 2
61 4 6
61 5 5
61 6 7
61 7 10
61 8 4
61 9 5
61 10 5
61 11 8
61 12 5
61 14 5
61 15 5
61 17 10
61 18 7
61 19 1
61 20 2
61 21 5
61 22 8
61 23 7
61 24 7
61 25 10
61 26 4
61 28 4
61 29 6
61 30 3
61 31 6
61 32 6
61 34 1
61 35 3
61 36 7
61 37 7
61 38 7
61 39 4
61 40 6
61 41 8
61 42 3
61 44 1
61 45 8
61 46 2
61 47 6
61 48 2
61 49 8
61 50 9
61 51 1
61 52 5
61 53 5
61 54 8
61 55 5
61 56 7
61 57 6
61 58 8
61 59 2
61 60 10
62 0 7
62 1 3
62 3 7
62 4 8
62 5 7
62 6 1
62 7 10
62 10 10
62 11 7
62 13 9
62 14 7
62 15 4
62 16 4
62 17 6
62 18 2
62 19 4
62 20 3
62 21 10
62 22 7
62 23 5
62 24 9
62 27 1
62 28 7
62 29 1
62 30 2
62 31 9
62 32 2
62 33 7
62 34 1
62 35 3
62 36 6
62 37 6
62 38 8
62 39 8
62 40 8
62 41 1
62 42 2
62 43 5
62 44 8
62 45 3
62 46 7
62 48 7
62 49 1
62 50 1
62 51 8
62 52 6
62 54 5
62 55 1
62 56 4
62 57 1
62 58 3
62 59 5
62 60 9
62 61 2
63 0 9
63 1 1
63 2 9
63 3 1
63 6 4
63 7 5
63 9 4
63 10 2
63 11 4
63 12 1
63 13 2
63 14 1
63 15 5
63 17 6
63 19 3
63 20 3
63 21 6
63 23 2
63 24 5
63 25 6
63 26 9
63 27 7
63 28 3
63 29 6
63 30 8
63 31 10
63 32 9
63 33 3
63 34 6
63 35 9
63 36 4
63 37 5
63 38 4
63 39 6
63 40 1
63 41 6
63 42 1
63 43 7
63 44 3
63 45 1
63 46 2
63 47 1
63 48 1
63 49 6
63 50 10
63 52 2
63 53 3
63 54 2
63 55 2
63 57 5
63 58 3
63 59 8
63 60 1
63 61 3
63 62 5
64 0 4
64 1 5
64 2 3
64 3 4
64 4 9
64 5 7
64 6 3
64 7 2
64 8 8
64 9 6
64 10 2
64 11 9
64 12 8
64 13 2
64 14 8
64 15 10
64 17 7
64 18 8
64 19 4
64 20 7
64 21 8
64 23 10
64 24 7
64 25 9
64 26 7
64 27 2
64 28 2
64 29 7
64 30 6
64 31 2
64 32 9
64 33 4
64 34 7
64 35 1
64 39 9
64 40 5
64 41 7
64 42 3
64 43 8
64 44 3
64 45 10
64 46 10
64 47 3
64 48 5
64 49 2
64 50 2
64 51 4
64 52 10
64 53 10
64 54 8
64 55 4
64 56 1
64 58 10
64 59 6
64 60 7
64 61 6
64 62 10
65 0 10
65 1 2
65 2 6
65 3 8
65 4 10
65 5 10
65 6 10
65 7 6
65 8 4
65 9 9
65 10 5
65 11 3
65 12 3
65 13 2
65 14 2
65 15 1
65 16 1
65 18 4
65 19 10
65 20 10
65 21 5
65 22 6
65 23 9
65 24 3
65 26 10
65 27 7
65 28 8
65 29 10
65 30 7
65 31 6
65 32 6
65 33 3
65 34 10
65 35 2
65 36 10
65 37 5
65 38 4
65 39 6
65 40 7
65 41 4
65 42 7
65 43 4
65 44 3
65 45 2
65 46 8
65 47 6
65 48 10
65 49 6
65 51 9
65 52 4
65 53 3
65 54 8
65 55 6
65 56 3
65 57 2
65 58 2
65 59 1
65 60 8
65 61 5
65 62 10
65 63 9
65 64 7
66 0 9
66 1 10
66 2 2
66 3 7
66 4 10
66 5 3
66 6 6
66 7 6
66 8 10
66 9 1
66 10 8
66 11 8
66 12 3
66 13 4
66 14 6
66 15 5
66 16 5
66 17 3
66 18 5
66 20 3
66 21 1
66 22 1
66 23 9
66 24 1
66 25 3
66 26 9
66 27 9
66 28 2
66 29 3
66 30 3
66 31 8
66 32 5
66 33 5
66 34 10
66 35 2
66 36 7
66 38 3
66 39 8
66 40 1
66 41 4
66 42 1
66 43 6
66 44 2
66 45 6
66 47 3
66 48 9
66 49 2
66 50 10
66 51 6
66 52 1
66 53 10
66 54 5
66 55 2
66 57 7
66 58 1
66 59 10
66 60 6
66 62 3
66 63 1
66 64 9
66 65 8
67 0 5
67 1 7
67 2 9
67 3 7
67 4 6
67 5 3
67 6 1
67 7 4
67 9 5
67 10 2
67 11 5
67 12 5
67 13 10
67 14 8
67 15 2
67 16 1
67 17 2
67 18 5
67 19 1
67 20 5
67 21 2
67 22 7
67 23 4
67 24 4
67 25 3
67 26 9
67 27 9
67 28 5
67 29 2
67 30 3
67 31 9
67 32 7
67 33 6
67 34 1
67 35 4
67 36 7
67 38 5
67 39 1
67 40 8
67 41 8
67 42 6
67 43 10
67 44 5
67 46 5
67 47 5
67 48 10
67 49 7
67 50 3
67 51 8
67 52 6
67 53 6
67 55 4
67 56 2
67 57 6
67 58 3
67 59 3
67 60 7
67 61 3
67 62 1
67 64 5
67 65 3
67 66 2
68 0 7
68 1 2
68 2 7
68 4 1
68 5 6
68 6 7
68 7 9
68 8 7
68 9 4
68 10 10
68 11 4
68 12 10
68 13 2
68 14 4
68 15 9
68 16 10
68 17 5
68 18 2
68 19 3
68 20 5
68 21 9
68 22 8
68 23 3
68 24 6
68 25 1
68 26 8
68 27 3
68 28 3
68 29 9
68 30 4
68 31 10
68 32 4
68 33 5
68 34 7
68 35 7
68 36 7
68 37 5
68 39 8
68 40 8
68 41 10
68 42 4
68 43 5
68 44 8
68 45 8
68 46 4
68 47 8
68 48 2
68 49 6
68 50 9
68 51 6
68 52 4
68 53 2
68 54 4
68 55 5
68 56 4
68 57 9
68 58 5
68 59 7
68 60 9
68 61 7
68 62 7
68 63 2
68 64 1
68 65 7
68 66 5
68 67 1
69 0 10
69 1 4
69 2 6
69 3 3
69 4 7
69 5 7
69 6 6
69 7 9
69 8 9
69 9 8
69 12 4
69 13 5
69 14 8
69 15 10
69 16 7
69 17 2
69 18 10
69 19 6
69 20 6
69 21 3
69 23 8
69 24 4
69 25 8
69 27 5
69 28 2
69 29 10
69 30 2
69 31 3
69 32 2
69 33 2
69 35 4
69 36 1
69 37 3
69 38 6
69 39 8
69 40 5
69 41 10
69 42 7
69 43 4
69 44 6
69 45 10
69 46 6
69 47 7
69 48 2
69 49 9
69 50 7
69 51 2
69 52 1
69 53 1
69 54 2
69 55 5
69 56 3
69 57 9
69 58 1
69 59 5
69 60 9
69 61 2
69 62 8
69 63 6
69 64 5
69 65 9
69 66 7
69 67 3
69 68 3
